CMD:
./solvers/bin/cadical --plain --no-reduce -t 1600 ./data/cnfs//picorv32_mutCY_nomem-p0/picorv32_mutCY_nomem-p0.82.cnf

c --- [ banner ] -------------------------------------------------------------
c 
c CaDiCaL SAT Solver
c Copyright (c) 2016-2024
c A. Biere, M. Fleury, N. Froleyks, K. Fazekas, F. Pollitt, T. Faller
c JKU Linz, University of Freiburg, TU Wien
c 
c Version 2.1.3 5296d3d2a9bf48c154ab2acb5e44625776d821bf
c g++ (Gentoo 12.3.1_p20230526 p2) 12.3.1 20230526 -Wall -Wextra -O3 -DNDEBUG
c Sat Aug 9 07:26:21 PDT 2025 Linux cedar2.int.cedar.computecanada.ca 5.14.0-362.24.2.el9_3.x86_64 x86_64
c 
c --- [ limit ] --------------------------------------------------------------
c 
c setting time limit to 1600 seconds real time (due to '-t 1600')
c 
c --- [ parsing input ] ------------------------------------------------------
c 
c reading DIMACS file from './data/cnfs//picorv32_mutCY_nomem-p0/picorv32_mutCY_nomem-p0.82.cnf'
c opening file to read './data/cnfs//picorv32_mutCY_nomem-p0/picorv32_mutCY_nomem-p0.82.cnf'
c found 'p cnf 4050764 11940935' header
c parsed 11940935 clauses in 1.97 seconds process time
c 
c --- [ options ] ------------------------------------------------------------
c 
c   --compact=false                (different from default 'true')
c   --decompose=false              (different from default 'true')
c   --deduplicate=false            (different from default 'true')
c   --elim=false                   (different from default 'true')
c   --probe=false                  (different from default 'true')
c   --reduce=false                 (different from default 'true')
c   --subsume=false                (different from default 'true')
c   --ternary=false                (different from default 'true')
c   --transred=false               (different from default 'true')
c   --vivify=false                 (different from default 'true')
c 
c --- [ solving ] ------------------------------------------------------------
c 
c time measured in process time since initialization
c 
c  seconds    reductions  redundant   irredundant
c          MB     restarts       trail          variables
c            level   conflicts       glue             remaining
c 
c *  1.97 1820  0 0   0    0    0  0% 0 11675495 3877066 96%
c {  2.48 1857  0 0   0    0    0  0% 0 11675495 3877066 96%
c i  2.95 1863 260 0   0  244  233  8% 3 11675495 3877062 96%
c i  2.95 1863 260 0   0  245  233  8% 3 11675495 3877059 96%
c i  2.98 1863 258 0   0  262  245  8% 3 11675495 3875990 96%
c }  3.62 1865 147 0  27 1001  890  7% 3 11675495 3875972 96%
c [  3.62 1865  0 0  27 1001  890  0% 0 11675495 3875972 96%
c O  3.74 1865 3932 0  27 1002  891  9% 2 11675495 3875972 96%
c i  4.92 1866 60863 0  27 1187 1027 95% 7 11675495 3875821 96%
c i  5.08 1867 60620 0  27 1369 1101 94% 17 11675495 3875819 96%
c ]  7.52 1868 60191 0  27 3002 1854 95% 33 11675495 3875819 96%
c {  7.52 1868 147 0  27 3002 1854  7% 3 11675495 3875819 96%
c F  7.64 1868 146 0  27 3003 1855  7% 3 11675495 3875819 96%
c i  7.65 1868 144 0  27 3017 1868  7% 3 11675495 3875818 96%
c i  7.85 1869 135 0  36 3117 1963  7% 3 11675495 3875817 96%
c i  8.28 1871 120 0  93 3429 2247  7% 3 11675495 3875816 96%
c i  8.31 1871 120 0  94 3433 2249  7% 3 11675495 3875679 96%
c i  8.31 1871 120 0  95 3434 2249  7% 3 11675495 3849572 95%
c i  8.37 1871 117 0  96 3487 2286  7% 3 11675495 3849568 95%
c i  8.39 1871 110 0  97 3593 2369  7% 3 11675495 3849567 95%
c 
c  seconds     reductions  redundant   irredundant
c          MB      restarts       trail          variables
c             level   conflicts       glue             remaining
c 
c i  8.39 1871 110 0  97 3596 2369  7% 3 11675495 3849559 95%
c i  8.40 1871 109 0  97 3607 2374  7% 3 11675495 3849460 95%
c i  8.41 1871 109 0  97 3609 2375  7% 3 11675495 3849452 95%
c i  8.41 1871 109 0  97 3612 2376  7% 3 11675495 3849435 95%
c i  8.59 1872 96 0 105 3971 2695  7% 3 11675495 3849407 95%
c i  8.59 1872 96 0 105 3980 2700  7% 3 11675495 3849405 95%
c i  8.60 1872 94 0 105 4019 2734  7% 3 11675495 3849389 95%
c i  8.61 1872 94 0 105 4022 2734  7% 3 11675495 3849310 95%
c i  8.62 1872 93 0 105 4052 2761  7% 3 11675495 3849309 95%
c i  9.34 1876 255 0 115 4179 2869  8% 3 11675495 3836208 95%
c i  9.34 1876 255 0 115 4180 2869  8% 3 11675495 3823084 94%
c i  9.47 1876 244 0 128 4305 2979  8% 3 11675495 3823066 94%
c i  9.48 1876 237 0 128 4381 3044  8% 3 11675495 3823065 94%
c i  9.48 1876 236 0 128 4388 3050  8% 3 11675495 3823064 94%
c i  9.48 1876 236 0 128 4395 3054  8% 3 11675495 3823055 94%
c i  9.49 1876 235 0 128 4407 3065  8% 3 11675495 3823047 94%
c i  9.49 1876 235 0 128 4408 3065  8% 3 11675495 3823045 94%
c i  9.94 1877 220 0 136 4700 3300  9% 3 11675495 3823038 94%
c i 10.15 1878 208 0 160 4898 3489  8% 3 11675495 3822891 94%
c i 10.16 1878 208 0 160 4899 3489  8% 3 11675495 3822888 94%
c 
c  seconds     reductions  redundant   irredundant
c          MB      restarts       trail          variables
c             level   conflicts       glue             remaining
c 
c i 10.16 1878 207 0 160 4915 3504  8% 3 11675495 3822887 94%
c i 10.21 1878 198 0 160 5063 3630  8% 3 11675495 3822886 94%
c i 10.24 1878 197 0 160 5089 3644  8% 3 11675495 3822885 94%
c i 10.27 1878 197 0 160 5098 3649  8% 3 11675495 3822884 94%
... skipped 474484 lines ...
v -4050363 -4050364 -4050365 4050366 -4050367 -4050368 -4050369 -4050370
v -4050371 -4050372 -4050373 -4050374 -4050375 -4050376 -4050377 -4050378
v -4050379 4050380 -4050381 -4050382 -4050383 -4050384 4050385 -4050386
v -4050387 -4050388 -4050389 4050390 -4050391 -4050392 -4050393 -4050394
v -4050395 4050396 -4050397 -4050398 -4050399 -4050400 4050401 -4050402
v -4050403 -4050404 -4050405 4050406 -4050407 -4050408 -4050409 -4050410
v 4050411 -4050412 -4050413 -4050414 4050415 -4050416 -4050417 -4050418
v -4050419 -4050420 -4050421 4050422 -4050423 4050424 -4050425 -4050426
v -4050427 -4050428 4050429 -4050430 -4050431 4050432 -4050433 -4050434
v -4050435 4050436 -4050437 -4050438 -4050439 4050440 -4050441 -4050442
v -4050443 -4050444 4050445 -4050446 -4050447 -4050448 -4050449 4050450
v 4050451 -4050452 -4050453 4050454 -4050455 4050456 -4050457 4050458 -4050459
v -4050460 4050461 -4050462 -4050463 -4050464 -4050465 4050466 -4050467
v -4050468 -4050469 4050470 -4050471 -4050472 -4050473 -4050474 4050475
v -4050476 -4050477 4050478 -4050479 -4050480 4050481 -4050482 -4050483
v 4050484 -4050485 -4050486 4050487 -4050488 -4050489 4050490 -4050491
v -4050492 4050493 -4050494 -4050495 4050496 -4050497 -4050498 4050499
v -4050500 -4050501 4050502 -4050503 -4050504 4050505 -4050506 -4050507
v 4050508 -4050509 -4050510 4050511 -4050512 -4050513 4050514 -4050515
v -4050516 4050517 -4050518 -4050519 4050520 -4050521 -4050522 4050523
v -4050524 -4050525 4050526 -4050527 -4050528 4050529 -4050530 -4050531
v 4050532 -4050533 -4050534 4050535 -4050536 -4050537 4050538 -4050539
v -4050540 4050541 -4050542 -4050543 4050544 -4050545 -4050546 4050547
v -4050548 -4050549 4050550 -4050551 -4050552 4050553 -4050554 -4050555
v 4050556 -4050557 -4050558 4050559 -4050560 -4050561 4050562 -4050563
v -4050564 4050565 -4050566 -4050567 -4050568 -4050569 4050570 -4050571
v 4050572 -4050573 -4050574 -4050575 -4050576 4050577 -4050578 -4050579
v 4050580 4050581 -4050582 -4050583 -4050584 -4050585 4050586 -4050587
v -4050588 4050589 4050590 4050591 -4050592 -4050593 -4050594 -4050595 4050596
v -4050597 -4050598 4050599 -4050600 -4050601 4050602 -4050603 -4050604
v 4050605 -4050606 -4050607 4050608 -4050609 -4050610 4050611 -4050612
v -4050613 4050614 -4050615 -4050616 4050617 -4050618 -4050619 4050620
v -4050621 -4050622 4050623 -4050624 -4050625 4050626 -4050627 -4050628
v 4050629 -4050630 -4050631 4050632 -4050633 -4050634 4050635 -4050636
v -4050637 4050638 -4050639 -4050640 4050641 -4050642 -4050643 4050644
v -4050645 -4050646 4050647 -4050648 -4050649 4050650 -4050651 -4050652
v 4050653 -4050654 -4050655 4050656 -4050657 -4050658 4050659 -4050660
v -4050661 4050662 -4050663 -4050664 4050665 -4050666 -4050667 4050668
v -4050669 -4050670 4050671 -4050672 -4050673 4050674 -4050675 -4050676
v 4050677 -4050678 -4050679 4050680 -4050681 -4050682 4050683 -4050684
v -4050685 4050686 -4050687 -4050688 4050689 -4050690 -4050691 -4050692
v 4050693 -4050694 -4050695 4050696 -4050697 4050698 4050699 4050700 4050701
v -4050702 -4050703 4050704 4050705 -4050706 -4050707 4050708 -4050709 4050710
v -4050711 -4050712 4050713 4050714 4050715 4050716 -4050717 4050718 -4050719
v -4050720 4050721 4050722 4050723 -4050724 -4050725 -4050726 4050727 -4050728
v -4050729 4050730 -4050731 -4050732 -4050733 4050734 -4050735 4050736
v -4050737 -4050738 -4050739 4050740 -4050741 -4050742 -4050743 -4050744
v 4050745 -4050746 -4050747 -4050748 -4050749 4050750 -4050751 -4050752
v -4050753 -4050754 -4050755 4050756 -4050757 -4050758 -4050759 -4050760
v 4050761 -4050762 4050763 -4050764 0
c 
c --- [ run-time profiling ] -------------------------------------------------
c 
c process time taken by individual solving procedures
c (percentage relative to process time for solving)
c 
c       717.20  100.00% search
c       474.57   66.17% stable
c       227.23   31.68% unstable
c        14.90    2.08% walk
c         1.97    0.27% parse
c         0.51    0.07% lucky
c         0.00    0.00% simplify
c   =================================
c       717.20   99.70% solve
c 
c last line shows process time for solving
c (percentage relative to total process time)
c 
c --- [ statistics ] ---------------------------------------------------------
c 
c chronological:             96832        42.98 %  of conflicts
c conflicts:                225300       314.14    per second
c decisions:               1965251      2740.15    per second
c fixed:                    246192         6.08 %  of all variables
c learned:                  208226        92.42 %  per conflict
c learned_lits:           34737494       100.00 %  learned literals
c minimized:                     0         0.00 %  learned literals
c shrunken:                4870745        14.02 %  learned literals
c minishrunken:            6027483        17.35 %  learned literals
c otfs:                       1281         0.57 %  of conflict
c propagations:         7357024725        10.26 M  per second
c rephased:                     20     11265.00    interval
c restarts:                   9671        23.30    interval
c stabilizing:                   4        62.27 %  of conflicts
c subsumed:                   7029         0.06 %  of all clauses
c strengthened:               1264         0.01 %  of all clauses
c walked:                        6     37550.00    interval
c 
c seconds are measured in process time for solving
c 
c --- [ resources ] ----------------------------------------------------------
c 
c total process time since initialization:       719.37    seconds
c total real time since initialization:          723.58    seconds
c maximum resident set size of process:         2751.98    MB
c 
c --- [ shutting down ] ------------------------------------------------------
c 
c exit 10
